p td 20 40
2 1
5 1
7 6
8 1
8 7
9 3
10 1
10 6
11 9
11 4
11 1
12 4
12 11
13 11
13 7
15 5
15 11
16 1
16 14
16 13
17 14
17 6
17 15
18 11
18 5
18 17
18 4
18 3
18 16
18 10
18 7
19 12
19 8
19 6
20 16
20 2
20 13
20 6
20 1
20 14
